NAME : 10_3_3_1_(37).dat
COMMENT : Henke, Speranza, Wäscher, 2015
TYPE : MCVRP
DIMENSION : 11
EDGE_WEIGHT_TYPE : DISTANCE_MATRIX
CAPACITY : 1000
VEHICLES : 3
PRODUCT TYPES : 3
COMPARTMENTS : 3
NODE_COORD_SECTION
1 50 50
2 43.2 14.99
3 6.72 96.68
4 91.4 67.83
5 74.32 58.57
6 27.14 19.32
7 42.42 79.69
8 1.92 57.09
9 13.41 93.18
10 45.71 89.9
11 33.17 74.87
DEMAND_SECTION
1 0 0 0
2 0 183 0
3 0 308 0
4 27 0 0
5 179 0 0
6 327 0 0
7 0 0 107
8 61 0 0
9 209 0 0
10 0 0 220
11 17 0 0
DEPOT_SECTION
1
EOF